--------------------------------------------------------------------------------(Solver execution current time: 0.0001926422119140625)
[INFO] Input Seed : 0
--------------------------------------------------------------------------------(Solver execution current time: 0.00023412704467773438)
[INFO] Input time limit : 10
--------------------------------------------------------------------------------(Solver execution current time: 0.00026702880859375)
[INFO] Command line arguments read with no errors.
--------------------------------------------------------------------------------(Solver execution current time: 0.0011029243469238281)
[INFO] Input file read with no errors.
--------------------------------------------------------------------------------(Solver execution current time: 0.0011582374572753906)
[INFO] Starting solver.
--------------------------------------------------------------------------------(Solver execution current time: 0.0011942386627197266)
[INFO] Starting construction
--------------------------------------------------------------------------------(Solver execution current time: 0.003221750259399414)
[INFO] Finished construction
--------------------------------------------------------------------------------(Solver execution current time: 0.003261566162109375)
[SOLUTION]
Basic Greedy Heuristic for Limited Fleet
Exec Time: 0.0020294189453125
obj_value: 125577.0; obj_routes: 125577.0
Route 1 : 5 4 9 10 3 8 
Route 2 : 2 1 7 6 
Route 3 : 

--------------------------------------------------------------------------------(Solver execution current time: 0.0034737586975097656)
[SOLUTION]
Solution after BasicGreedyLimitedFleet
obj_value: 125577.0; obj_routes: 125577.0
Route 1 : 5 4 9 10 3 8 
Route 2 : 2 1 7 6 
Route 3 : 

--------------------------------------------------------------------------------(Solver execution current time: 0.0035877227783203125)
[INFO] Starting metaheuristic
--------------------------------------------------------------------------------(Solver execution current time: 0.003896951675415039)
[INFO] AGES EXCLUDED
--------------------------------------------------------------------------------(Solver execution current time: 10.021493434906006)
[WARNING] Time Limit Exceeded
--------------------------------------------------------------------------------(Solver execution current time: 10.021658182144165)
[WARNING] Searching current best solution.
--------------------------------------------------------------------------------(Solver execution current time: 10.021859169006348)
[WARNING] Current best solution found.
--------------------------------------------------------------------------------(Solver execution current time: 10.021904706954956)
[INFO] Algorithm execution time : 10.022587299346924
--------------------------------------------------------------------------------(Solver execution current time: 10.022270917892456)
[SOLUTION]
Final Solution Verification
====================================
Constraints verification: 
Time Windwos Constraint OK
Pickup and Delivery Constraint OK
Fixed Requests Constraint OK
Attend All Requests Constraint OK
Limited Fleet Constraint OK
====================================
Obj Func verification: 
SOLUTION COST OK
------------------------------------
ROUTES TOTAL COST OK
------------------------------------
REQUESTS TOTAL COST OK
------------------------------------
OBJECTIVE VALUE: 125577.0
ROUTES VALUE: 125577.0
------------------------------------

Best Solution: 
obj_value: 125577.0; obj_routes: 125577.0
Route 1 : 5 4 9 10 3 8 
Route 2 : 2 1 7 6 
Route 3 : 

--------------------------------------------------------------------------------